param set_len = 12;
param target_sum = 2375441002;
param values := [1] 254461351 [2] 16332091 [3] 1065212687 [4] 621228895 [5] 36825016 [6] 381380962 [7] 544861529 [8] 18319043 [9] 501643963 [10] 209944923 [11] 586247297 [12] 1059155645 ;
